File "./GRP710-11/SMT.v", line 6, characters 0-20:
Warning: Interpreting this declaration as if a global declaration prefixed by
"Local", i.e. as a global declaration which shall not be available without
qualification when imported. [local-declaration,vernacular,default]
File "./GRP710-11/SMT.v", line 7, characters 0-28:
Warning: Interpreting this declaration as if a global declaration prefixed by
"Local", i.e. as a global declaration which shall not be available without
qualification when imported. [local-declaration,vernacular,default]
File "./GRP710-11/SMT.v", line 8, characters 0-18:
Warning: Interpreting this declaration as if a global declaration prefixed by
"Local", i.e. as a global declaration which shall not be available without
qualification when imported. [local-declaration,vernacular,default]
File "./GRP710-11/SMT.v", line 9, characters 0-16:
Warning: Interpreting this declaration as if a global declaration prefixed by
"Local", i.e. as a global declaration which shall not be available without
qualification when imported. [local-declaration,vernacular,default]
File "./GRP710-11/SMT.v", line 10, characters 0-16:
Warning: Interpreting this declaration as if a global declaration prefixed by
"Local", i.e. as a global declaration which shall not be available without
qualification when imported. [local-declaration,vernacular,default]
File "./GRP710-11/SMT.v", line 22, characters 2-6:
Warning: Discarding the following lemma (unsupported):
(forall A : Z, mult (i A) A = unit) [SMTCoq-discarding-lemma,SMTCoq,default]
File "./GRP710-11/SMT.v", line 22, characters 2-6:
Warning: Discarding the following lemma (unsupported):
(forall A : Z, mult A (i A) = unit) [SMTCoq-discarding-lemma,SMTCoq,default]
File "./GRP710-11/SMT.v", line 22, characters 2-6:
Warning: Discarding the following lemma (unsupported):
(forall A B C : Z, mult A (mult B (mult B C)) = mult (mult (mult A B) B) C)
[SMTCoq-discarding-lemma,SMTCoq,default]
File "./GRP710-11/SMT.v", line 22, characters 2-6:
Warning: Discarding the following lemma (unsupported):
(forall A : Z, mult unit A = A) [SMTCoq-discarding-lemma,SMTCoq,default]
File "./GRP710-11/SMT.v", line 22, characters 2-6:
Warning: Discarding the following lemma (unsupported):
(forall A : Z, mult A unit = A) [SMTCoq-discarding-lemma,SMTCoq,default]
veriT --proof-prune --proof-merge --proof-with-sharing --cnf-definitional --disable-ackermann --input=smtlib2 --proof=/tmp/verit_coq0ff9a5.vtlog /tmp/verit_coq0ff9a5.smt2 2> /tmp/warnings_verit51eeba.log
veriT dev - the SMT-solver veriT (UFRN/LORIA).
success
success
success
success
success
success
unknown
success
success
Verit = 0.00007
(set-option :print-success true)
(set-option :produce-assignments true)
(set-option :produce-proofs true)
(set-logic QF_UFLIA)
(declare-fun op_0 () Int)
(declare-fun op_1 () Int)
(declare-fun op_2 (Int Int ) Int)
(declare-fun op_3 () Int)
(assert (not (= (op_2 op_0 op_1) op_3)))
(check-sat)
(get-model)
File "./GRP710-11/SMT.v", line 22, characters 2-5:
Error:
CVC4 returned sat. Here is the model:

X5 := 0
x4 := 1
mult := fun _ _ => 2
x3 := -1

